data;


param d:= 100;
param r:=5;
param p:=0.600000;
param M:=1000;
param U:=
         1         1        1.006825e+00
         2         1       -1.437611e+00
         3         1       -7.901091e-01
         4         1       -6.325088e-01
         5         1       -1.208405e+00
         6         1       -3.978391e-01
         7         1        3.236688e-01
         8         1       -2.790022e-01
         9         1       -1.446622e+00
        10         1        1.872952e+00
        11         1       -1.351224e+00
        12         1       -8.504551e-01
        13         1       -7.658232e-01
        14         1        1.212756e+00
        15         1       -1.901293e+00
        16         1       -1.179326e+00
        17         1       -1.262565e-01
        18         1        1.451839e+00
        19         1       -4.102914e-01
        20         1       -6.619266e-01
        21         1       -1.995628e+00
        22         1        1.574712e+00
        23         1       -2.499266e-01
        24         1       -9.930496e-01
        25         1       -4.664959e-01
        26         1       -2.945063e-01
        27         1        1.244401e+00
        28         1        2.307612e-01
        29         1        7.042184e-01
        30         1       -1.186538e-01
        31         1       -1.638926e+00
        32         1        8.423966e-01
        33         1        1.566230e-02
        34         1       -3.404850e-01
        35         1        1.189036e+00
        36         1        4.710622e-01
        37         1        9.494306e-01
        38         1       -2.145240e+00
        39         1       -2.815643e-01
        40         1        9.627611e-01
        41         1        4.751928e-01
        42         1       -1.881743e+00
        43         1        1.731193e+00
        44         1        1.157209e+00
        45         1       -3.589508e-01
        46         1       -2.242250e+00
        47         1       -2.124619e-01
        48         1        7.338920e-01
        49         1        3.329387e-01
        50         1       -5.472939e-01
        51         1       -3.911062e-01
        52         1        2.661740e+00
        53         1        1.409868e+00
        54         1        1.608355e-01
        55         1       -8.960515e-01
        56         1        9.305642e-02
        57         1       -1.593166e+00
        58         1        5.969394e-02
        59         1       -2.247661e-01
        60         1       -8.243418e-01
        61         1       -1.195633e+00
        62         1       -7.807338e-01
        63         1        5.163035e-02
        64         1       -7.511937e-01
        65         1        1.335860e-01
        66         1        3.671894e-01
        67         1       -1.483157e+00
        68         1       -7.152876e-01
        69         1       -2.510374e-01
        70         1       -2.100858e+00
        71         1        6.383323e-01
        72         1       -1.335528e+00
        73         1        1.247574e+00
        74         1       -5.831410e-01
        75         1        1.496636e+00
        76         1        3.450453e-01
        77         1       -1.365690e-01
        78         1       -2.738105e-01
        79         1       -4.059091e-01
        80         1        9.224485e-01
        81         1       -1.278351e+00
        82         1       -9.375964e-01
        83         1       -5.610815e-01
        84         1       -2.282125e-01
        85         1       -5.903881e-01
        86         1        4.774675e-01
        87         1       -6.415704e-01
        88         1        1.295941e-02
        89         1       -2.461191e+00
        90         1       -2.769812e-01
        91         1        1.292053e+00
        92         1        1.612245e+00
        93         1        2.240305e+00
        94         1        5.274480e-01
        95         1        6.134017e-01
        96         1       -5.176450e-01
        97         1       -6.170835e-01
        98         1        3.101583e-01
        99         1       -4.974830e-01
       100         1        4.746811e-01
         1         2       -8.630680e-01
         2         2        2.487611e+00
         3         2        1.157084e-01
         4         2        5.895931e-01
         5         2        2.824951e-01
         6         2       -3.336616e-01
         7         2        1.278391e+00
         8         2       -4.178405e-01
         9         2       -5.404243e-01
        10         2       -1.728235e+00
        11         2        1.187432e+00
        12         2        2.954981e-01
        13         2       -1.537975e+00
        14         2        9.562300e-01
        15         2       -5.018807e-01
        16         2        2.435114e+00
        17         2        3.184666e-01
        18         2       -1.458541e+00
        19         2       -2.075422e+00
        20         2        2.172742e+00
        21         2        9.304326e-02
        22         2        1.206536e+00
        23         2        4.765912e-01
        24         2       -5.102290e-01
        25         2        8.546989e-01
        26         2       -1.097716e+00
        27         2        2.503397e-01
        28         2        1.082023e+00
        29         2       -8.606381e-01
        30         2        1.155066e-01
        31         2        6.687666e-02
        32         2       -5.486955e-01
        33         2       -4.988345e-01
        34         2        5.972416e-01
        35         2       -1.435993e+00
        36         2        7.100187e-01
        37         2       -2.724253e-01
        38         2       -3.760306e-01
        39         2       -2.279071e+00
        40         2       -1.514891e+00
        41         2       -1.785039e+00
        42         2        1.230376e+00
        43         2        5.116647e-01
        44         2        1.119998e-01
        45         2        5.734847e-01
        46         2        4.159334e-01
        47         2       -1.115866e+00
        48         2       -3.604208e-01
        49         2       -7.187940e-01
        50         2       -1.010039e+00
        51         2        1.126141e+00
        52         2        1.041530e+00
        53         2        1.952195e-01
        54         2       -2.237801e+00
        55         2       -3.756443e-01
        56         2        9.576831e-01
        57         2       -7.547702e-01
        58         2        2.824453e-01
        59         2       -1.311860e+00
        60         2        4.021007e-01
        61         2       -2.439801e-01
        62         2       -1.330252e+00
        63         2        1.313901e+00
        64         2        1.137455e+00
        65         2        7.075420e-01
        66         2        4.153195e-01
        67         2        2.496793e-01
        68         2       -3.493783e-01
        69         2       -5.915851e-01
        70         2        4.524492e-01
        71         2        9.066248e-01
        72         2       -4.787081e-01
        73         2       -1.121514e+00
        74         2        7.451368e-02
        75         2       -4.453430e-01
        76         2        6.065625e-01
        77         2       -1.455361e-01
        78         2       -1.162641e+00
        79         2       -1.697851e+00
        80         2       -2.744572e-01
        81         2       -1.128906e+00
        82         2        1.668668e+00
        83         2       -1.022282e+00
        84         2       -4.282531e-01
        85         2       -2.834193e-01
        86         2       -8.899913e-02
        87         2       -8.128620e-01
        88         2       -1.004927e+00
        89         2       -1.426452e+00
        90         2        7.856328e-01
        91         2       -1.237886e+00
        92         2       -7.030754e-01
        93         2       -1.946326e+00
        94         2       -7.752344e-01
        95         2        1.223412e-02
        96         2        1.589778e-01
        97         2       -1.057642e+00
        98         2        1.448131e+00
        99         2        2.440171e-01
       100         2        4.305703e-01
         1         3        1.009612e+00
         2         3        1.051902e+00
         3         3        1.160843e+00
         4         3        1.010935e+00
         5         3        9.278716e-01
         6         3        7.016943e-02
         7         3       -5.350480e-01
         8         3       -3.271993e+00
         9         3       -6.634795e-01
        10         3        1.080188e+00
        11         3        1.722304e+00
        12         3       -2.791591e-01
        13         3       -1.030471e+00
        14         3        1.244096e-01
        15         3        5.422488e-01
        16         3        1.083371e+00
        17         3        6.835426e-01
        18         3        1.306343e+00
        19         3        1.627321e-02
        20         3        6.767331e-01
        21         3       -1.539706e+00
        22         3        9.606735e-01
        23         3        2.193403e+00
        24         3        2.242533e+00
        25         3       -1.638388e+00
        26         3        3.805424e-01
        27         3       -6.788389e-01
        28         3       -1.187922e+00
        29         3       -1.835636e-01
        30         3       -1.004575e+00
        31         3       -5.920626e-01
        32         3       -1.069414e+00
        33         3       -3.473615e-01
        34         3       -7.292925e-02
        35         3       -1.292197e+00
        36         3       -1.828213e+00
        37         3        2.162167e+00
        38         3        6.971277e-01
        39         3        9.621017e-01
        40         3       -1.799037e+00
        41         3       -5.951930e-01
        42         3        3.033883e+00
        43         3       -3.157631e-02
        44         3        4.267372e-01
        45         3        6.704306e-01
        46         3        7.433392e-01
        47         3       -4.525639e-01
        48         3        6.116275e-03
        49         3        3.412873e-01
        50         3       -8.478563e-01
        51         3        5.612765e-01
        52         3        5.265030e-01
        53         3        1.875099e+00
        54         3        2.167343e+00
        55         3       -2.333789e+00
        56         3        2.493408e+00
        57         3        3.413739e-01
        58         3       -1.126138e+00
        59         3        8.142927e-01
        60         3        8.793159e-01
        61         3        6.486892e-01
        62         3       -6.788188e-01
        63         3        2.264847e+00
        64         3        4.373340e-01
        65         3       -6.802932e-01
        66         3        1.335752e+00
        67         3       -2.175415e+00
        68         3       -3.011743e-01
        69         3       -9.887789e-02
        70         3       -9.775903e-01
        71         3        1.303443e+00
        72         3       -2.606514e-01
        73         3        8.540073e-01
        74         3       -5.680197e-02
        75         3        1.404734e+00
        76         3        2.417965e+00
        77         3        8.003451e-01
        78         3       -9.111690e-01
        79         3        7.840613e-01
        80         3       -1.395950e+00
        81         3       -1.170719e+00
        82         3       -5.715457e-01
        83         3       -5.789111e-02
        84         3       -1.238758e+00
        85         3        4.162076e-01
        86         3        1.206008e+00
        87         3        8.439885e-02
        88         3       -2.290975e-01
        89         3        9.293047e-02
        90         3        1.409697e+00
        91         3       -6.613976e-01
        92         3        6.377583e-02
        93         3       -8.212702e-01
        94         3       -3.036097e+00
        95         3       -4.805519e-01
        96         3        1.106728e+00
        97         3        1.240817e+00
        98         3        1.144534e+00
        99         3       -1.119358e-01
       100         3       -5.213494e-01
         1         4       -1.481859e+00
         2         4       -8.932538e-01
         3         4       -3.617840e-01
         4         4       -1.646932e-01
         5         4       -3.269033e-01
         6         4        4.411950e-01
         7         4       -4.481376e-01
         8         4        1.143867e+00
         9         4        3.562954e-01
        10         4       -5.363106e-01
        11         4       -1.680824e-01
        12         4       -1.853187e+00
        13         4        1.704880e+00
        14         4       -5.786931e-01
        15         4       -7.706596e-01
        16         4        1.516572e-01
        17         4        3.019195e-01
        18         4        1.984021e+00
        19         4        4.724598e-01
        20         4       -5.314028e-01
        21         4        6.106000e-01
        22         4        6.896864e-01
        23         4       -1.691037e+00
        24         4        1.951318e+00
        25         4        1.215186e+00
        26         4       -8.998076e-01
        27         4        6.133022e-01
        28         4       -9.704121e-01
        29         4        1.315858e+00
        30         4       -1.162403e-01
        31         4        1.316876e+00
        32         4        9.781542e-01
        33         4       -1.228738e+00
        34         4       -1.653999e+00
        35         4        2.314557e-01
        36         4        1.420831e+00
        37         4       -1.110646e+00
        38         4       -5.295379e-02
        39         4       -1.508969e-01
        40         4        9.999734e-01
        41         4        1.119084e+00
        42         4       -9.741768e-02
        43         4       -1.638118e+00
        44         4        6.734579e-02
        45         4       -4.451938e-01
        46         4       -7.419117e-01
        47         4        3.721605e-01
        48         4        9.370404e-01
        49         4       -4.415572e-01
        50         4        4.170945e-01
        51         4        1.413945e+00
        52         4       -1.274210e+00
        53         4        3.994494e-01
        54         4        1.475011e+00
        55         4       -1.500673e+00
        56         4       -3.666054e-01
        57         4       -4.880952e-01
        58         4        7.405119e-01
        59         4        4.400614e-01
        60         4        9.349559e-01
        61         4        4.387097e-01
        62         4        1.479078e+00
        63         4       -2.181542e-01
        64         4       -1.460881e-01
        65         4       -5.958538e-01
        66         4       -1.733189e+00
        67         4        3.691366e-01
        68         4       -1.182651e+00
        69         4        3.510977e-02
        70         4        6.192326e-01
        71         4       -5.523020e-01
        72         4       -4.387775e-01
        73         4        2.719838e-01
        74         4       -3.003828e-01
        75         4       -1.160875e+00
        76         4       -9.614764e-01
        77         4       -2.237234e+00
        78         4       -5.922240e-01
        79         4       -5.215674e-02
        80         4       -1.232378e+00
        81         4        3.344547e-01
        82         4        1.695317e-01
        83         4       -3.826591e-01
        84         4        1.320557e+00
        85         4       -1.107210e-02
        86         4       -1.004494e-02
        87         4        2.817288e+00
        88         4       -5.752671e-01
        89         4       -7.815374e-01
        90         4        8.351051e-01
        91         4       -8.383875e-01
        92         4       -1.583447e+00
        93         4        9.523727e-03
        94         4        9.764140e-01
        95         4        6.717144e-01
        96         4        1.658753e+00
        97         4       -2.761566e-01
        98         4       -6.867396e-01
        99         4        1.414559e+00
       100         4        1.377126e+00
         1         5       -8.714371e-01
         2         5        1.137517e-01
         3         5        5.416926e-01
         4         5       -1.548377e+00
         5         5        1.715750e+00
         6         5        1.969276e+00
         7         5       -5.484647e-01
         8         5       -1.194474e+00
         9         5        2.235924e+00
        10         5       -4.122691e-01
        11         5       -2.389546e+00
        12         5       -4.383690e-01
        13         5       -1.310551e+00
        14         5       -2.839499e-01
        15         5        5.627609e-01
        16         5        1.152474e-01
        17         5        1.939459e-01
        18         5       -1.932764e-01
        19         5        1.162846e+00
        20         5       -1.477724e+00
        21         5       -2.373867e-01
        22         5       -1.381440e+00
        23         5        1.498380e-01
        24         5       -2.133503e+00
        25         5       -5.611340e-01
        26         5        7.646356e-01
        27         5       -1.101072e+00
        28         5        9.545167e-01
        29         5        2.999688e-01
        30         5        6.599561e-01
        31         5       -7.155829e-01
        32         5       -1.335341e+00
        33         5        4.501575e-01
        34         5       -2.490348e-01
        35         5       -2.022168e-01
        36         5       -9.594587e-01
        37         5       -7.808804e-01
        38         5       -1.989339e-01
        39         5       -2.004336e+00
        40         5        3.634430e-02
        41         5       -5.480952e-01
        42         5       -9.365692e-02
        43         5        3.343878e-02
        44         5        3.478117e-01
        45         5       -2.235712e+00
        46         5        1.392414e+00
        47         5        6.944064e-01
        48         5       -9.447911e-01
        49         5       -1.751424e+00
        50         5       -2.685018e-01
        51         5       -2.951237e-01
        52         5       -4.382311e-01
        53         5        1.803011e+00
        54         5        1.669201e+00
        55         5       -3.502852e-01
        56         5        1.927280e-01
        57         5       -1.180046e-01
        58         5        7.213652e-01
        59         5        5.687096e-01
        60         5        3.079460e-01
        61         5        4.081636e-01
        62         5       -1.001873e+00
        63         5       -3.842861e-01
        64         5       -1.237120e+00
        65         5       -1.258470e-01
        66         5       -1.100727e+00
        67         5        5.041223e-01
        68         5        9.569301e-03
        69         5       -5.311120e-01
        70         5        1.090083e+00
        71         5        2.043205e-01
        72         5       -1.764457e-01
        73         5        2.907254e-01
        74         5       -6.899343e-01
        75         5       -5.154013e-01
        76         5        7.457981e-01
        77         5       -4.806145e-01
        78         5       -1.465962e-01
        79         5       -5.136861e-01
        80         5       -3.687984e-01
        81         5       -1.262334e+00
        82         5        1.484584e+00
        83         5        5.767734e-01
        84         5       -4.237001e-01
        85         5       -6.787626e-01
        86         5       -4.831798e-01
        87         5        1.781960e+00
        88         5        2.540086e-01
        89         5       -9.373342e-01
        90         5       -1.541942e-01
        91         5        1.218451e-01
        92         5       -8.210564e-01
        93         5       -2.092317e-01
        94         5        9.715761e-01
        95         5        6.429265e-01
        96         5       -5.352398e-01
        97         5       -3.983237e-01
        98         5       -1.516402e+00
        99         5        2.015128e-01
       100         5        1.161623e-02
;

param theta:=
    1        7.897173e-02
    2       -9.215671e-01
    3       -2.526394e+00
    4       -2.241812e-01
    5       -6.486429e-02
;
param X_true:=
    1       -1.285818e+00
    2       -4.869937e+00
    3       -3.055522e+00
    4       -3.009734e+00
    5       -2.737263e+00
    6       -1.286240e-01
    7        3.332636e-01
    8        8.451558e+00
    9        1.836287e+00
   10       -8.416244e-01
   11       -5.357994e+00
   12        8.106447e-01
   13        3.663571e+00
   14       -9.509591e-01
   15       -9.199725e-01
   16       -5.115375e+00
   17       -2.110094e+00
   18       -2.272320e+00
   19        1.657030e+00
   20       -3.548531e+00
   21        3.526007e+00
   22       -3.478564e+00
   23       -5.632540e+00
   24       -5.572684e+00
   25        3.077127e+00
   26        1.781321e-01
   27        1.517659e+00
   28        2.178457e+00
   29        9.975468e-01
   30        2.405811e+00
   31        1.055520e+00
   32        3.141634e+00
   33        1.583860e+00
   34       -5.687174e-03
   35        4.642976e+00
   36        3.744948e+00
   37       -4.838271e+00
   38       -1.560472e+00
   39       -1.865987e-01
   40        5.791716e+00
   41        2.971805e+00
   42       -8.919742e+00
   43        1.090443e-01
   44       -1.128578e+00
   45       -2.005237e+00
   46       -2.362830e+00
   47        2.024899e+00
   48        2.261248e-01
   49        3.859527e-02
   50        2.953892e+00
   51       -2.785789e+00
   52       -1.764663e+00
   53       -5.012480e+00
   54       -3.839572e+00
   55        6.529274e+00
   56       -7.104485e+00
   57       -1.767363e-01
   58        2.375975e+00
   59       -1.001847e+00
   60       -2.886983e+00
   61       -1.632261e+00
   62        2.613734e+00
   63       -6.856091e+00
   64       -2.100699e+00
   65        1.219088e+00
   66       -3.268445e+00
   67        5.034259e+00
   68        1.291218e+00
   69        8.023410e-01
   70        1.678023e+00
   71       -3.966753e+00
   72        1.103645e+00
   73       -1.103775e+00
   74        1.424753e-01
   75       -2.727074e+00
   76       -6.471693e+00
   77       -1.365336e+00
   78        3.493431e+00
   79       -4.027697e-01
   80        4.152699e+00
   81        3.904971e+00
   82       -3.029347e-01
   83        1.093068e+00
   84        3.238329e+00
   85       -7.899238e-01
   86       -2.896251e+00
   87       -2.596638e-01
   88        1.619625e+00
   89        1.119454e+00
   90       -4.484605e+00
   91        3.093995e+00
   92        1.020537e+00
   93        4.057667e+00
   94        8.145130e+00
   95        1.057869e+00
   96       -3.319644e+00
   97       -2.120634e+00
   98       -3.948381e+00
   99       -3.130330e-01
  100        6.481049e-01
;
param X:=
    1       -1.285818e+00
    2        1.133717e+00
    3       -8.587474e-01
    4       -3.009734e+00
    5       -1.028527e+00
    6       -1.729633e-01
    7        3.559199e-02
    8       -3.298894e-01
    9        3.092404e-01
   10        8.209165e-01
   11       -5.357994e+00
   12        8.106447e-01
   13       -4.762015e-01
   14       -9.509591e-01
   15        4.351960e-01
   16        1.413989e+00
   17        1.502500e-01
   18        8.898434e-01
   19       -1.016215e+00
   20       -4.011316e-01
   21       -3.522041e-01
   22       -1.021991e-01
   23       -5.632540e+00
   24       -5.265115e-01
   25        3.077127e+00
   26        1.781321e-01
   27       -1.481473e+00
   28        1.330684e+00
   29        9.975468e-01
   30        2.405811e+00
   31       -6.113455e-01
   32       -1.101312e-01
   33       -2.647024e-01
   34       -4.864095e-01
   35        4.642976e+00
   36       -7.491103e-01
   37        7.551842e-02
   38       -1.560472e+00
   39       -1.865987e-01
   40       -2.588134e-02
   41        2.971805e+00
   42        8.049450e-01
   43        1.090443e-01
   44        6.753513e-01
   45       -2.005237e+00
   46       -2.362830e+00
   47        2.024899e+00
   48        2.261248e-01
   49        6.060639e-01
   50        2.953892e+00
   51        2.553161e-01
   52       -1.764663e+00
   53       -5.012480e+00
   54       -3.839572e+00
   55        1.718573e-01
   56       -4.760806e-02
   57       -1.767363e-01
   58        1.002382e-01
   59       -5.241384e-01
   60       -4.692088e-01
   61       -1.632261e+00
   62        2.613734e+00
   63        5.521911e-01
   64       -2.100699e+00
   65        1.756259e+00
   66       -3.268445e+00
   67       -5.064460e-01
   68        2.489100e-01
   69       -8.142935e-01
   70        1.678023e+00
   71       -3.966753e+00
   72       -3.730926e-01
   73       -1.132977e-01
   74       -1.206267e+00
   75       -2.623921e-01
   76       -6.471693e+00
   77        1.934988e+00
   78       -2.779091e-01
   79        1.097935e+00
   80       -4.525147e-01
   81        4.185313e-01
   82       -3.029347e-01
   83       -3.371018e-01
   84        3.238329e+00
   85       -7.899238e-01
   86       -1.000819e+00
   87        8.963387e-01
   88        1.049386e+00
   89       -8.466918e-01
   90        5.203281e-01
   91        3.093995e+00
   92        1.020537e+00
   93        4.057667e+00
   94        8.145130e+00
   95       -3.385987e-01
   96       -2.336017e+00
   97       -2.120634e+00
   98       -1.665595e+00
   99       -1.237996e+00
  100        6.481049e-01
;
param outliervec:=
    1    0
    2    1
    3    1
    4    0
    5    1
    6    1
    7    1
    8    1
    9    1
   10    1
   11    0
   12    0
   13    1
   14    0
   15    1
   16    1
   17    1
   18    1
   19    1
   20    1
   21    1
   22    1
   23    0
   24    1
   25    0
   26    0
   27    1
   28    1
   29    0
   30    0
   31    1
   32    1
   33    1
   34    1
   35    0
   36    1
   37    1
   38    0
   39    0
   40    1
   41    0
   42    1
   43    0
   44    1
   45    0
   46    0
   47    0
   48    0
   49    1
   50    0
   51    1
   52    0
   53    0
   54    0
   55    1
   56    1
   57    0
   58    1
   59    1
   60    1
   61    0
   62    0
   63    1
   64    0
   65    1
   66    0
   67    1
   68    1
   69    1
   70    0
   71    0
   72    1
   73    1
   74    1
   75    1
   76    0
   77    1
   78    1
   79    1
   80    1
   81    1
   82    0
   83    1
   84    0
   85    0
   86    1
   87    1
   88    1
   89    1
   90    1
   91    0
   92    0
   93    0
   94    0
   95    1
   96    1
   97    0
   98    1
   99    1
  100    0
;